#   Hz   S  RI   R   50
!
0.0 -0.9390468618057709 0.0
75000000.0 -0.938554773340183 0.030206896844676097
150000000.0 -0.9370801015573037 0.06036603073123252
225000000.0 -0.9346276133276462 0.09042990945940524
300000000.0 -0.9312052070961503 0.12035157898769229
375000000.0 -0.9268238441765227 0.1500848841913604
450000000.0 -0.9214974541480508 0.1795847198313303
525000000.0 -0.9152428158898522 0.20880726879173797
600000000.0 -0.9080794161571691 0.2377102249058649
675000000.0 -0.900029287925752 0.2662529980018029
750000000.0 -0.8911168309968579 0.29439689915124717
825000000.0 -0.8813686175617792 0.3221053044868178
900000000.0 -0.8708131855683034 0.34934379635438473
975000000.0 -0.8594808228112123 0.3760802809760909
1050000000.0 -0.8474033446859848 0.4022850822064298
1125000000.0 -0.8346138685022949 0.42793101135786893
1200000000.0 -0.8211465871562359 0.45299341344517613
1275000000.0 -0.8070365448133998 0.47745019054106413
1350000000.0 -0.7923194170659139 0.5012818032436763
1425000000.0 -0.7770312978028623 0.5244712515241197
1500000000.0 -0.7612084947832735 0.5470040364463868
1575000000.0 -0.7448873356319685 0.5688681044309877
1650000000.0 -0.7281039856989406 0.5900537758671371
1725000000.0 -0.7108942789398902 0.6105536599674367
1800000000.0 -0.693293562695832 0.6303625578058419
1875000000.0 -0.6753365569791709 0.6494773554873066
1950000000.0 -0.65705722861741 0.6678969093697357
2025000000.0 -0.6384886803677163 0.6856219251999143
2100000000.0 -0.6196630548991262 0.7026548329396577
2175000000.0 -0.6006114533463442 0.7189996589511246
2250000000.0 -0.5813638679712964 0.7346618970858838
2325000000.0 -0.5619491283262983 0.7496483800853396
2400000000.0 -0.54239486019582 0.7639671525548277
2475000000.0 -0.5227274565015713 0.7776273466239272
2550000000.0 -0.5029720592867956 0.7906390612548093
2625000000.0 -0.48315255184866357 0.803013246011721
2700000000.0 -0.46329156006058064 0.8147615899605969
2775000000.0 -0.4434104619170545 0.8258964162303276
2850000000.0 -0.4235294043403598 0.8364305826380789
2925000000.0 -0.403667326308312 0.8463773886614478
3000000000.0 -0.38384198739407016 0.8557504889310197
3075000000.0 -0.36407000084970315 0.8645638133185471
3150000000.0 -0.34436687041358593 0.8728314936087387
3225000000.0 -0.3247470300755379 0.8805677966664515
3300000000.0 -0.3052238860914672 0.8877870639457083
3375000000.0 -0.2858098605995803 0.8945036571319765
3450000000.0 -0.26651643625175037 0.9007319096640027
3525000000.0 -0.2473542013352038 0.9064860838455864
3600000000.0 -0.22833289492040784 0.9117803332302187
3675000000.0 -0.20946145163007862 0.9166286699418863
3750000000.0 -0.19074804568093567 0.9210449365826311
3825000000.0 -0.17220013390374325 0.9250427823710281
3900000000.0 -0.15382449749782837 0.928635643154767
3975000000.0 -0.13562728232343543 0.9318367249443115
4050000000.0 -0.11761403757874035 0.9346589906224385
4125000000.0 -0.09978975274801734 0.9371151494957082
4200000000.0 -0.08215889274327648 0.9392176493679392
4275000000.0 -0.06472543119369066 0.9409786708320411
4350000000.0 -0.047492881865434024 0.9424101234944985
4425000000.0 -0.030464328219166618 0.9435236438660387
4500000000.0 -0.01364245113360958 0.9443305946720324
4575000000.0 0.0029704451584778705 0.9448420653566346
4650000000.0 0.019372408860827903 0.9450688735752714
4725000000.0 0.035561818057694754 0.9450215674904531
4800000000.0 0.051537359729158363 0.9447104287058732
4875000000.0 0.06729801024866917 0.9441454756930545
4950000000.0 0.08284301726918816 0.9433364675833289
5025000000.0 0.09817188290164815 0.9422929082154559
5100000000.0 0.1132843480885665 0.9410240503456705
5175000000.0 0.12818037807626712 0.9395388999422578
5250000000.0 0.14286014889108573 0.9378462205008575
5325000000.0 0.15732403472795695 0.9359545373295689
5400000000.0 0.17157259616374423 0.9338721417645334
5475000000.0 0.18560656911226472 0.9316070952870218
5550000000.0 0.19942685444324718 0.9291672335222105
5625000000.0 0.21303450819301445 0.9265601701077647
5700000000.0 0.2264307323005904 0.9237933004271783
5775000000.0 0.2396168658089373 0.9208738052085583
5850000000.0 0.2525943764770679 0.9178086539942685
5925000000.0 0.26536485275475913 0.9146046084906614
6000000000.0 0.27792999607740293 0.9112682258100547
6075000000.0 0.2902916134441543 0.9078058616192844
6150000000.0 0.3024516102478389 0.9042236732106179
6225000000.0 0.3144119833301216 0.90052762251167
6300000000.0 0.3261748142400587 0.8967234790512624
6375000000.0 0.33774226267847424 0.8928168228980088
6450000000.0 0.34911656011445724 0.8888130475878571
6525000000.0 0.36030000356379166 0.8847173630559411
6600000000.0 0.37129494952222136 0.8805347985869447
6675000000.0 0.3821038080491656 0.8762702057968558
6750000000.0 0.39272903699982453 0.8719282616574612
6825000000.0 0.40317313640559493 0.86751347157336
6900000000.0 0.4134386430043483 0.86303017251959
6975000000.0 0.4235281249234195 0.8584825362462829
7050000000.0 0.4334441765191801 0.8538745725550821
7125000000.0 0.44318941337780865 0.8492101326504117
7200000000.0 0.45276646748234994 0.8444929125670906
7275000000.0 0.46217798255144277 0.8397264566742834
7350000000.0 0.47142660955516386 0.8349141612543567
7425000000.0 0.4805150024133076 0.8300592781538786
7500000000.0 0.4894458138812185 0.8251649185028175
7575000000.0 0.498221691627851 0.8202340564968784
7650000000.0 0.5068452745102858 0.8152695332369629
7725000000.0 0.515319189048335 0.8102740606188911
7800000000.0 0.5236460461021962 0.8052502252657807
7875000000.0 0.5318284377554419 0.8002004924948946
7950000000.0 0.5398689344048562 0.7951272103102535
8025000000.0 0.5477700820578536 0.7900326134119497
8100000000.0 0.5555343998374433 0.7849188272128214
8175000000.0 0.5631643776938818 0.7797878718529775
8250000000.0 0.5706624743213782 0.774641666202598
8325000000.0 0.5780311152774416 0.7694820318434469
8400000000.0 0.5852726913017026 0.7643106970196603
8475000000.0 0.5923895568303028 0.7591293005485269
8550000000.0 0.5993840287012779 0.7539393956822655
8625000000.0 0.6062583850456812 0.7487424539121103
8700000000.0 0.6130148643586005 0.7435398687064023
8775000000.0 0.6196556647436537 0.7383329591748148
8850000000.0 0.6261829433240285 0.73312297365134
8925000000.0 0.6325988158126864 0.7279110931891694
9000000000.0 0.6389053562339269 0.7226984349611647
9075000000.0 0.6451045967881679 0.7174860555602173
9150000000.0 0.6511985278515092 0.7122749541943701
9225000000.0 0.6571890981013859 0.7070660757722494
9300000000.0 0.6630782147594722 0.7018603138749443
9375000000.0 0.6688677439428383 0.696658513611151
9450000000.0 0.6745595111143228 0.6914614743530327
9525000000.0 0.6801553016230519 0.6862699523508762
9600000000.0 0.6856568613260776 0.6810846632252792
9675000000.0 0.6910658972822126 0.6759062843362045
9750000000.0 0.696384078509255 0.6707354570288463
9825000000.0 0.7016130367959913 0.6655727887568321
9900000000.0 0.7067543675606034 0.6604188550838371
9975000000.0 0.7118096307473443 0.6552742015652154
10050000000.0 0.7167803517536827 0.6501393455117501
10125000000.0 0.7216680223804213 0.6450147776380754
10200000000.0 0.7264741017976801 0.6399009635987652
10275000000.0 0.7312000175200187 0.6347983454154581
10350000000.0 0.7358471663843699 0.629707342798736
10425000000.0 0.7404169155249075 0.6246283543688007
10500000000.0 0.744910603339392 0.6195617587792394
10575000000.0 0.7493295404419972 0.6145079157484087
10650000000.0 0.7536750105980811 0.6094671670031627
10725000000.0 0.7579482716368121 0.6044398371397826
10800000000.0 0.7621505563380295 0.5994262344070918
10875000000.0 0.766283073290163 0.5944266514167955
10950000000.0 0.7703470077164859 0.5894413657861423
11025000000.0 0.7743435222674111 0.5844706407179859
11100000000.0 0.7782737577769525 0.5795147255233025
11175000000.0 0.7821388339818971 0.5745738560911693
11250000000.0 0.785939850202607 0.5696482553110964
11325000000.0 0.7896778859847504 0.5647381334525192
11400000000.0 0.7933540017016046 0.5598436885060877
11475000000.0 0.7969692391169101 0.5549651064912632
11550000000.0 0.8005246219085477 0.550102561734524
11625000000.0 0.8040211561536099 0.5452562171223092
11700000000.0 0.8074598307756761 0.5404262243326141
11775000000.0 0.8108416179553539 0.5356127240489272
11850000000.0 0.8141674735053478 0.5308158461599793
11925000000.0 0.8174383372115073 0.526035709948531
12000000000.0 0.8206551331414662 0.5212724242721956
12075000000.0 0.8238187699226313 0.5165260877390354
12150000000.0 0.8269301409913844 0.5117967888804419
12225000000.0 0.8299901248154752 0.5070846063235549
12300000000.0 0.8329995850916337 0.5023896089652389
12375000000.0 0.8359593709205162 0.49771185614939406
12450000000.0 0.838870316961099 0.4930513978491542
12525000000.0 0.8417332435666907 0.4884082748552779
12600000000.0 0.8445489569047029 0.48378251897184305
12675000000.0 0.8473182490623263 0.4791741532201237
12750000000.0 0.850041898140223 0.47458319205133265
12825000000.0 0.852720668336299 0.47000964156871483
12900000000.0 0.8553553100215806 0.46545349975929934
12975000000.0 0.857946559810139 0.4609147567354344
13050000000.0 0.8604951406249369 0.4563933949860722
13125000000.0 0.8630017617613899 0.45188938963761793
13200000000.0 0.8654671189503402 0.447402708724017
13275000000.0 0.8678918944220364 0.44293331346561954
13350000000.0 0.8702767569726139 0.4384811585562553
13425000000.0 0.8726223620344598 0.43404619245783266
13500000000.0 0.8749293517517276 0.4296283577016922
13575000000.0 0.877198355062147 0.4252275911958569
13650000000.0 0.8794299877861677 0.4208438245372485
13725000000.0 0.881624852724333 0.4164769843278852
13800000000.0 0.8837835397636804 0.4121269924940202
13875000000.0 0.885906625993823 0.40779376660714844
13950000000.0 0.8879946758332563 0.40347722020577287
14025000000.0 0.8900482411663161 0.39917726311681356
14100000000.0 0.8920678614910871 0.39489380177552563
14175000000.0 0.8940540640784513 0.39062673954279825
14250000000.0 0.8960073641423563 0.3863759770187185
14325000000.0 0.8979282650212702 0.382141412351293
14400000000.0 0.899817258370693 0.3779229415392624
14475000000.0 0.9016748243664896 0.37372045872795756
14550000000.0 0.9035014319187171 0.36953385649720594
14625000000.0 0.905297538895538 0.36536302614033245
14700000000.0 0.9070635923567195 0.36120785793335214
14775000000.0 0.9088000287961521 0.35706824139351523
14850000000.0 0.9105072743927421 0.35294406552642393
14925000000.0 0.9121857452689828 0.34883521906100423
15000000000.0 0.9138358477564352 0.3447415906716954
15075000000.0 0.9154579786673246 0.34066306918728056
15150000000.0 0.917052525571387 0.3365995437858644
15225000000.0 0.918619867077092 0.3325509041755816
15300000000.0 0.9201603731163202 0.32851704076069166
15375000000.0 0.921674405231562 0.32449784479280297
15450000000.0 0.9231623168646842 0.3204932085070394
15525000000.0 0.9246244536463001 0.3165030252430464
15600000000.0 0.9260611536847905 0.31252718955081454
15675000000.0 0.9274727478539952 0.3085655972813676
15750000000.0 0.928859560078642 0.3046181456624439
15825000000.0 0.9302219076165658 0.3006847333593721
15900000000.0 0.9315601013368024 0.29676526052141317
15975000000.0 0.9328744459926674 0.29285962881390804
16050000000.0 0.934165240488954 0.28896774143664
16125000000.0 0.9354327781424275 0.28508950312888187
16200000000.0 0.9366773469348227 0.2812248201616569
16275000000.0 0.9378992297576011 0.2773736003177992
16350000000.0 0.9390987046477636 0.273535752860456
16425000000.0 0.9402760450140752 0.2697111884907132
16500000000.0 0.9414315198531008 0.26589981929508627
16575000000.0 0.9425653939545053 0.2621015586836385
16650000000.0 0.9436779280951464 0.25831632131954546
16725000000.0 0.9447693792215242 0.2545440230409415
16800000000.0 0.9458400006202339 0.250784580775922
16875000000.0 0.9468900420761273 0.24703791245158832
16950000000.0 0.947919750017946 0.24330393689805258
17025000000.0 0.9489293676512623 0.23958257374831912
17100000000.0 0.949919135078642 0.23587374333498534
17175000000.0 0.9508892894069855 0.23217736658468718
17250000000.0 0.9518400648420985 0.22849336491123767
17325000000.0 0.9527716927705989 0.22482166010837973
17400000000.0 0.9536844018293337 0.22116217424307866
17475000000.0 0.9545784179625544 0.21751482955025592
17550000000.0 0.9554539644671605 0.21387954832984665
17625000000.0 0.9563112620263876 0.21025625284703953
17700000000.0 0.957150528732382 0.20664486523652628
17775000000.0 0.957971980098163 0.20304530741154983
17850000000.0 0.9587758290595266 0.19945750097850035
17925000000.0 0.959562285967525 0.1958813671577708
18000000000.0 0.9603315585721757 0.1923168267115176
18075000000.0 0.9610838519981252 0.18876379987893782
18150000000.0 0.9618193687130371 0.18522220631959857
18225000000.0 0.9625383084895104 0.1816919650653019
18300000000.0 0.9632408683613664 0.1781729944809018
18375000000.0 0.9639272425751839 0.1746652122344153
18450000000.0 0.9645976225379884 0.17116853527670406
18525000000.0 0.9652521967620025 0.1676828798309228
18600000000.0 0.9658911508074145 0.16420816139185834
18675000000.0 0.9665146672240902 0.1607442947351994
18750000000.0 0.9671229254931838 0.15729119393670363
18825000000.0 0.9677161019695918 0.15384877240114248
18900000000.0 0.968294369826167 0.1504169429008289
18975000000.0 0.9688578990006153 0.14699561762344562
19050000000.0 0.9694068561459536 0.14358470822882632
19125000000.0 0.9699414045853826 0.1401841259142487
19200000000.0 0.9704617042723855 0.1367937814877361
19275000000.0 0.9709679117568226 0.13341358544879012
19350000000.0 0.9714601801577317 0.13004344807590235
19425000000.0 0.9719386591434935 0.12668327952014075
19500000000.0 0.9724034949199493 0.12333298990403674
19575000000.0 0.9728548302269928 0.11999248942495559
19650000000.0 0.9732928043440822 0.11666168846207295
19725000000.0 0.9737175531050339 0.11334049768605475
19800000000.0 0.9741292089223842 0.11002882817048973
19875000000.0 0.9745279008215059 0.10672659150410563
19950000000.0 0.9749137544845903 0.10343369990278048
20025000000.0 0.9752868923044998 0.10015006632034161
20100000000.0 0.9756474334484104 0.09687560455715735
20175000000.0 0.9759954939310671 0.09361022936551447
20250000000.0 0.9763311866973785 0.09035385655080656
20325000000.0 0.9766546217139839 0.08710640306756536
20400000000.0 0.976965906069334 0.08386778710941327
20475000000.0 0.9772651440817424 0.08063792819204517
20550000000.0 0.9775524374147637 0.07741674722840333
20625000000.0 0.9778278851991857 0.07420416659525997
20700000000.0 0.9780915841608414 0.07100011019049986
20775000000.0 0.978343628753366 0.06780450348044828
20850000000.0 0.9785841112949681 0.06461727353668915
20925000000.0 0.9788131221082222 0.06143834906189396
21000000000.0 0.9790307496618272 0.05826766040427758
21075000000.0 0.9792370807132522 0.055105139560397955
21150000000.0 0.9794322004511341 0.05195072016611418
21225000000.0 0.9796161926362783 0.0488043374756332
21300000000.0 0.9797891397401015 0.045665928328679266
21375000000.0 0.9799511230793314 0.04253543110593548
21450000000.0 0.9801022229458058 0.03941278567302947
21525000000.0 0.9802425187302116 0.036297933313433235
21600000000.0 0.9803720890386413 0.03319081665078623
21675000000.0 0.9804910118008765 0.030091379561242523
21750000000.0 0.9805993643693567 0.026999567076576456
21825000000.0 0.9806972236078595 0.023915325278866827
21900000000.0 0.9807846659689785 0.02083860118770652
21975000000.0 0.9808617675595764 0.0177693426409679
22050000000.0 0.9809286041934766 0.014707498170253326
22125000000.0 0.9809852514307592 0.011653016872244461
22200000000.0 0.9810317846031511 0.00860584827723767
22275000000.0 0.9810682788250972 0.005565942216218782
22350000000.0 0.9810948089902527 0.002533248687897253
22425000000.0 0.9811114497532543 -0.00049228227285797
22500000000.0 0.9811182754967829 -0.003510700723683826
22575000000.0 0.9811153602840639 -0.006522056938992204
22650000000.0 0.9811027777971155 -0.009526401528320377
22725000000.0 0.9810806012612033 -0.012523785547285548
22800000000.0 0.9810489033561076 -0.015514260599644128
22875000000.0 0.9810077561149717 -0.018497878929038827
22950000000.0 0.9809572308116654 -0.021474693499053135
23025000000.0 0.9808973978377084 -0.02444475806026186
23100000000.0 0.9808283265699862 -0.027408127203072653
23175000000.0 0.9807500852306092 -0.030364856395229047
23250000000.0 0.9806627407403942 -0.03331500200299911
23325000000.0 0.9805663585675671 -0.03625862129516903
23400000000.0 0.980461002573418 -0.03919577242914535
23475000000.0 0.9803467348566947 -0.04212651441859508
23550000000.0 0.9802236155986466 -0.0450509070822548
23625000000.0 0.9800917029106643 -0.04796901097370489
23700000000.0 0.9799510526865277 -0.05088088729209837
23775000000.0 0.9798017184613065 -0.05378659777404109
23850000000.0 0.9796437512789494 -0.056686204567025694
23925000000.0 0.9794771995706227 -0.05957977008502168
24000000000.0 0.9793021090457995 -0.062467356847051084
24075000000.0 0.9791185225980714 -0.06534902729977442
24150000000.0 0.9789264802275647 -0.06822484362535425
24225000000.0 0.9787260189817701 -0.07109486753602698
24300000000.0 0.9785171729164608 -0.07395916005705669
24375000000.0 0.9782999730782489 -0.0768177812999166
24450000000.0 0.978074447510154 -0.07967079022772322
24525000000.0 0.9778406212814199 -0.08251824441514233
24600000000.0 0.977598516542554 -0.08536019980510337
24675000000.0 0.9773481526064173 -0.08819671046485042
24750000000.0 0.9770895460559026 -0.09102782834390843
24825000000.0 0.9768227108785348 -0.09385360303672267
24900000000.0 0.9765476586280231 -0.09667408155273391
24975000000.0 0.9762643986125675 -0.09948930809675834
25050000000.0 0.9759729381093979 -0.10229932386253031
25125000000.0 0.9756732826047603 -0.10510416684230618
25200000000.0 0.9753654360582578 -0.10790387165535063
25275000000.0 0.9750494011901591 -0.11069846939813376
25350000000.0 0.9747251797899898 -0.11348798751891488
25425000000.0 0.9743927730444298 -0.11627244971934426
25500000000.0 0.974052181882235 -0.11905187588549848
25575000000.0 0.9737034073336579 -0.12182628205066076
25650000000.0 0.9733464509015173 -0.1245956803918886
25725000000.0 0.97298131494087 -0.12736007926223522
25800000000.0 0.9726080030439429 -0.1301194832601764
25875000000.0 0.9722265204268324 -0.13287389333755387
25950000000.0 0.9718368743141971 -0.13562330694698163
26025000000.0 0.9714390743180956 -0.13836771822936167
26100000000.0 0.971033132806899 -0.14110711824177258
26175000000.0 0.970619065260155 -0.1438414952255953
26250000000.0 0.9701968906051698 -0.1465708349143684
26325000000.0 0.9697666315310802 -0.14929512088042218
26400000000.0 0.9693283147761094 -0.1520143349189187
26475000000.0 0.9688819713838509 -0.154728457467466
26550000000.0 0.968427636924421 -0.1574374680590648
26625000000.0 0.967965351676491 -0.1601413458056433
26700000000.0 0.9674951607663764 -0.162840069909041
26775000000.0 0.9670171142606001 -0.16553362019582138
26850000000.0 0.9665312672085976 -0.16822197767188943
26925000000.0 0.9660376796325478 -0.17090512509245254
27000000000.0 0.9655364164617232 -0.17358304754250653
27075000000.0 0.9650275474091043 -0.17625573302261946
27150000000.0 0.9645111467885192 -0.17892317303449468
27225000000.0 0.9639872932710316 -0.181585363160453
27300000000.0 0.9634560695798718 -0.18424230363078434
27375000000.0 0.9629175621237883 -0.18689399987261857
27450000000.0 0.9623718605692554 -0.1895404630339302
27525000000.0 0.9618190573527385 -0.19218171047607768
27600000000.0 0.9612592471347456 -0.1948177662283331
27675000000.0 0.9606925261982067 -0.19744866139784048
27750000000.0 0.9601189917943125 -0.2000744345285749
27825000000.0 0.9595387414397777 -0.202695131903007
27900000000.0 0.9589518721700614 -0.20531080778049463
27975000000.0 0.9583584797538814 -0.20792152456665894
28050000000.0 0.9577586578749783 -0.2105273529084869
28125000000.0 0.9571524972877591 -0.21312837171035434
28200000000.0 0.9565400849540596 -0.21572466806667817
28275000000.0 0.9559215031688243 -0.21831633710760862
28350000000.0 0.9552968286830659 -0.22090348175480076
28425000000.0 0.9546661318328823 -0.22348621238515143
28500000000.0 0.9540294756837178 -0.22606464640108717
28575000000.0 0.9533869151993877 -0.22863890770706255
28650000000.0 0.9527384964456042 -0.23120912609262534
28725000000.0 0.9520842558378855 -0.23377543652361782
28800000000.0 0.951424219443814 -0.23633797834387762
28875000000.0 0.9507584023494934 -0.23889689439100154
28950000000.0 0.9500868080999929 -0.24145233003062685
29025000000.0 0.9494094282232514 -0.24400443211488138
29100000000.0 0.9487262418465517 -0.24655334787153907
29175000000.0 0.9480372154142381 -0.24909922373159143
29250000000.0 0.9473423025147611 -0.25164220410378463
29325000000.0 0.946641443824411 -0.25418243010577096
29400000000.0 0.9459345671743642 -0.25672003826231204
29475000000.0 0.9452215877467663 -0.25925515918190406
29550000000.0 0.9445024084045471 -0.2617879162238613
29625000000.0 0.9437769201586795 -0.26431842416876333
29700000000.0 0.9430450027753107 -0.2668467879055477
29775000000.0 0.942306525524082 -0.2693731011492513
29850000000.0 0.9415613480675725 -0.271897445203676
29925000000.0 0.9408093214904476 -0.2744198877835981
30000000000.0 0.940050289465473 -0.27694048191125903
